<number of tasks>
20

<cycle time>
1000

<order strength>
0,553


<task times>
1 541
2 211
3 513
4 63
5 492
6 287
7 312
8 95
9 175
10 389
11 532
12 264
13 336
14 223
15 50
16 487
17 435
18 199
19 122
20 258

<precedence relations>
1,8
2,12
3,7
4,13
5,6
5,7
5,8
6,9
6,10
7,9
7,10
8,9
9,11
9,12
9,17
10,13
11,14
11,15
11,16
12,15
13,17
13,20
14,18
15,20
16,18
16,19

<end>
